# Objective value = 41
WA1n 0
WA1p 0
WA2n 1
WA2p 0
WB1n 0
WB1p 0
WB2n 0
WB2p 1
WC1n 0
WC1p 0
WC2n 0
WC2p 1
WD1n 0
WD1p 1
WE1n 2
WE1p 0
WF1n 0
WF1p 2
WG1n 5
WG1p 0
WH1n 7
WH1p 0
WI1n 0
WI1p 12
WT1n 0
WT1p 4
WT2n 0
WT2p 1
5 7
a 0
b 0
c 0
d 1
e 0
f 1
g 1
h 0
i 1
j 0
k 0
l 1
m 1
n 1
